! 3.65 3.67
" -9.59 65.92
# 9.23 40.45
$ 3.08 6.71
% 8.9 72.04
& 2.07 96.79
' -4.55 66.06
) 1.98 36.83
* 6.19 47.14
+ -4.6 37.53
, 0.36 25.44
- -5.86 9.92
. 2.79 95.02
/ -8.07 21.55
0 4.65 82.02
1 -8.44 45.63
2 9.42 66.32
3 -9.21 91.73
4 -4.88 79.01
5 -3.62 16.15
6 3.13 -0.29
7 -8.33 0.59
8 8.49 94.79
9 8.02 95.25
: 6.21 88.73
; -8.8 9.62
< -4.91 11.41
= 9.78 100.64
> -8.82 50.82
? 5.19 21.67
@ 0.86 94.0
A 9.57 5.64
B 5.98 16.26
C 1.77 12.33
D 2.06 87.81
E 9.75 38.35
F 4.9 18.84
G 2.61 80.59
H 0.11 87.87
